25
    1     8     8
    2     1     1
    3     5     5
    4    13    13
    5    19    19
    6    15    15
    7    20    20
    8    11    11
    9     1     1
   10     8     8
   11     2     2
   12    16    16
   13     2     2
   14     4     4
   15     8     8
   16    18    18
   17    10    10
   18    13    13
   19    15    15
   20     9     9
   21    12    12
   22     6     6
   23     8     8
   24     6     6
   25     9     9
70
